
  24    0


   0   9 2 3 5 6 19 20 21 22 23 
  10   5 18 17 9 8 7 
   9   2 12 4 
   7   3 14 11 9 
  10   3 16 12 9 
   4   3 15 11 10 
   5   1 13 
   9   1 10 
   6   1 24
   1   1 24
   2   1 24
   2   1 24
   9   1 24
  10   1 24
   2   1 24
   9   1 24
   2   1 24
   7   1 24
   6   1 24
   2   1 24
   3   1 24
   1   1 24
   2   1 24
   0   0 
